(set-logic QF_S)
(declare-fun var0 () String)
(declare-fun var1 () Int)
(declare-fun var2 () String)
(declare-fun var3 () Int)
(declare-fun var4 () Int)
(declare-fun var5 () String)
(declare-fun var6 () String)
(declare-fun var7 () Int)
(assert (str.suffixof (str.at var0 var1) (str.substr var2 var3 var4)))
(assert (str.contains (str.replace var5 var6 var0) (str.replace "5N\\]lV<PK|" var0 var5)))
(assert (not (str.suffixof var2 var6)))
(assert (str.contains (str.replace var6 var5 var2) (str.at var2 var7)))
(check-sat)